% Archivo de datos
row=6;
column=5;
start=[|-1, -1,  9, -1, 34, -1,  4, -1, -1, -1|
        -1,  9,  0,  0,  0,  0,  0,  0, -1, -1|
        -1, 13,  0,  0,  0,  0,  0,  0, -1, -1|
        -1, 13,  0,  0,  0,  0, 11, -1,  3, -1|
        -1, -1, -1,  7,  0,  0,  0,  0,  0,  0|
        -1, -1, -1, 19,  0,  0,  0,  0,  0,  0|];